s td 40 16 55
b 1 13 39 54
b 2 3 32 48
b 3 4 19 20
b 4 8 10 54
b 5 21 40 45
b 6 10 12 51
b 7 1 2 9 10 13 14 17 23 26 28 29 30 32 38 41 45
b 8 1 9 10 13 14 17 23 26 28 29 30 32 38 41 44 45
b 9 1 9 10 13 14 17 23 26 28 29 30 32 38 44 54
b 10 1 9 10 13 14 17 23 28 29 30 32 38 44 50 54
b 11 1 9 13 14 17 23 27 28 29 30 32 38 44 50 54
b 12 1 9 14 17 23 27 28 29 30 32 34 38 50 54
b 13 5 14 27 32 34 50
b 14 5 14 32 34 52
b 15 1 9 17 22 23 27 28 30 32 34 38 50 54
b 16 1 9 17 22 28 30 31 32 50
b 17 22 31 32 33 50
b 18 1 22 23 27 34 37 38
b 19 22 27 28 30 47
b 20 23 34 38 46
b 21 1 26 29 53 54
b 22 1 2 9 10 12 13 14 17 23 26 28 29 30 32 41 45
b 23 1 2 9 10 12 14 17 20 23 26 29 30 32 41 45
b 24 1 2 6 9 10 14 20 23 26 29 30 32 41 45
b 25 2 6 9 10 14 20 23 26 29 30 32 41 45 55
b 26 2 6 10 29 30 41 42 45 55
b 27 6 29 40 41 42 45 55
b 28 6 7 40 41 42
b 29 2 6 9 14 20 23 24 26 29 32 41 45 55
b 30 2 6 9 14 18 20 23 24 29 32 41 55
b 31 2 6 9 18 20 24 29 32 41 48
b 32 2 6 11 20 24 41 48
b 33 2 9 14 43 55
b 34 6 14 19 20
b 35 17 20 25 32
b 36 2 10 12 13 14 17 26 28 29 32 41 45 49
b 37 2 12 14 16 17 28 29 41 45 49
b 38 2 12 15 16 17 28 29 45 49
b 39 2 12 15 16 29 36
b 40 2 28 30 35
1 9
2 31
3 34
4 9
5 27
6 22
7 8
7 22
7 40
8 9
9 10
9 21
10 11
11 12
12 13
12 15
12 20
13 14
15 16
15 18
15 19
16 17
22 23
22 36
23 24
23 35
24 25
24 34
25 26
25 29
25 33
26 27
27 28
29 30
30 31
31 32
36 37
37 38
38 39
